(set-logic AUFLRA)
(declare-fun _substvar_1_ () Bool)
(set-option :sygus-repair-const true)
(set-option :sygus-pbe true)
(set-option :sygus-rr-synth true)
(set-option :sygus-rec-fun false)
(set-option :sygus-inference true)
(assert _substvar_1_)
(check-sat)
